(set-logic QF_S)
(declare-fun var0 () String)
(assert (str.in.re var0 (re.++ (re.+ (re.union (str.to.re "00") (str.to.re "11"))) (re.++ (re.+ (re.+ (str.to.re "22"))) (re.++ (re.union (re.union (str.to.re "3") (str.to.re "444")) (re.union (str.to.re "555") (str.to.re "66"))) (re.++ (re.+ (re.+ (str.to.re "77"))) (re.++ (re.+ (re.+ (str.to.re "888"))) (re.union (re.* (str.to.re "99")) (re.* (str.to.re "a"))))))))))
(assert (not (str.in.re var0 (re.++ (re.* (re.* (str.to.re "00"))) (re.++ (re.+ (re.union (str.to.re "111") (str.to.re "2"))) (re.++ (re.union (re.union (str.to.re "3") (str.to.re "44")) (re.union (str.to.re "5") (str.to.re "666"))) (re.++ (re.* (re.union (str.to.re "77") (str.to.re "888"))) (re.++ (re.+ (re.+ (str.to.re "99"))) (re.* (re.* (str.to.re "aaa")))))))))))
(check-sat)